20
587 233 220
40 36 21
76 45 31
63 54 51
114 77 69
95 57 53
92 36 20
90 84 47
84 69 24
57 35 35
78 76 50
81 67 37
73 51 43
64 54 30
85 73 51
83 58 23
114 71 27
67 56 50
79 51 46
89 57 36
109 72 46
thpack7_33